NAME : prob15e
TYPE : PDTSP
DIMENSION : 31
EDGE_WEIGHT_TYPE : EUC_2D
NODE_COORD_SECTION
1 319 233
2 853 173
3 25 400
4 694 123
5 63 23
6 648 23
7 319 733
8 428 743
9 188 939
10 945 80
11 624 949
12 130 465
13 678 30
14 623 218
15 845 36
16 326 488
17 394 384
18 92 513
19 105 393
20 534 103
21 238 988
22 857 690
23 757 510
24 404 119
25 674 924
26 501 529
27 432 57
28 848 627
29 571 20
30 29 18
31 865 615
PICKUP_AND_DELIVERY_SECTION
1 0 0 0 0 0 0
2 0 0 0 0 17 0
3 0 0 0 0 18 0
4 0 0 0 0 19 0
5 0 0 0 0 20 0
6 0 0 0 0 21 0
7 0 0 0 0 22 0
8 0 0 0 0 23 0
9 0 0 0 0 24 0
10 0 0 0 0 25 0
11 0 0 0 0 26 0
12 0 0 0 0 27 0
13 0 0 0 0 28 0
14 0 0 0 0 29 0
15 0 0 0 0 30 0
16 0 0 0 0 31 0
17 0 0 0 0 0 2
18 0 0 0 0 0 3
19 0 0 0 0 0 4
20 0 0 0 0 0 5
21 0 0 0 0 0 6
22 0 0 0 0 0 7
23 0 0 0 0 0 8
24 0 0 0 0 0 9
25 0 0 0 0 0 10
26 0 0 0 0 0 11
27 0 0 0 0 0 12
28 0 0 0 0 0 13
29 0 0 0 0 0 14
30 0 0 0 0 0 15
31 0 0 0 0 0 16
DEPOT_SECTION
1 
-1
EOF
